c File: data_files/evolved_graphs/g0138.col
c
c Auto generated graph
c
p edge 100 1837
e 1 2
e 1 4
e 1 5
e 1 6
e 1 7
e 1 8
e 1 9
e 1 10
e 1 11
e 1 12
e 1 13
e 1 14
e 1 15
e 1 16
e 1 17
e 1 18
e 1 19
e 1 21
e 1 22
e 1 23
e 1 25
e 1 26
e 1 42
e 1 45
e 1 46
e 1 54
e 1 58
e 1 64
e 1 65
e 1 66
e 1 75
e 1 76
e 1 89
e 1 93
e 1 94
e 1 96
e 1 100
e 2 4
e 2 5
e 2 6
e 2 7
e 2 8
e 2 9
e 2 10
e 2 11
e 2 12
e 2 13
e 2 14
e 2 16
e 2 17
e 2 18
e 2 19
e 2 20
e 2 21
e 2 22
e 2 23
e 2 26
e 2 27
e 2 34
e 2 40
e 2 45
e 2 47
e 2 49
e 2 51
e 2 53
e 2 54
e 2 56
e 2 61
e 2 66
e 2 74
e 2 84
e 2 93
e 2 94
e 2 95
e 2 96
e 2 97
e 2 100
e 3 4
e 3 5
e 3 6
e 3 7
e 3 8
e 3 9
e 3 10
e 3 11
e 3 12
e 3 13
e 3 14
e 3 15
e 3 16
e 3 17
e 3 18
e 3 19
e 3 20
e 3 21
e 3 23
e 3 24
e 3 25
e 3 30
e 3 40
e 3 43
e 3 51
e 3 55
e 3 57
e 3 63
e 3 70
e 3 71
e 3 76
e 3 85
e 3 94
e 3 95
e 3 98
e 3 99
e 4 5
e 4 6
e 4 7
e 4 8
e 4 9
e 4 10
e 4 11
e 4 12
e 4 14
e 4 15
e 4 18
e 4 19
e 4 21
e 4 22
e 4 25
e 4 28
e 4 34
e 4 37
e 4 44
e 4 52
e 4 53
e 4 55
e 4 60
e 4 64
e 4 66
e 4 69
e 4 76
e 4 93
e 4 97
e 4 99
e 4 100
e 5 6
e 5 7
e 5 8
e 5 9
e 5 10
e 5 12
e 5 13
e 5 14
e 5 15
e 5 16
e 5 17
e 5 18
e 5 19
e 5 20
e 5 21
e 5 22
e 5 23
e 5 25
e 5 29
e 5 31
e 5 32
e 5 35
e 5 38
e 5 40
e 5 42
e 5 53
e 5 55
e 5 65
e 5 67
e 5 81
e 5 94
e 5 95
e 5 97
e 5 98
e 6 7
e 6 8
e 6 10
e 6 11
e 6 12
e 6 13
e 6 14
e 6 15
e 6 17
e 6 18
e 6 19
e 6 20
e 6 21
e 6 22
e 6 23
e 6 24
e 6 33
e 6 36
e 6 37
e 6 39
e 6 44
e 6 55
e 6 62
e 6 63
e 6 73
e 6 75
e 6 89
e 6 93
e 6 95
e 6 96
e 7 9
e 7 10
e 7 11
e 7 12
e 7 14
e 7 15
e 7 16
e 7 17
e 7 18
e 7 19
e 7 20
e 7 21
e 7 22
e 7 23
e 7 24
e 7 27
e 7 28
e 7 34
e 7 41
e 7 67
e 7 73
e 7 76
e 7 77
e 7 78
e 7 80
e 7 93
e 7 94
e 7 96
e 7 99
e 7 100
e 8 9
e 8 10
e 8 12
e 8 13
e 8 14
e 8 15
e 8 16
e 8 17
e 8 18
e 8 19
e 8 21
e 8 22
e 8 23
e 8 27
e 8 28
e 8 31
e 8 33
e 8 42
e 8 45
e 8 50
e 8 57
e 8 72
e 8 87
e 8 93
e 8 94
e 8 95
e 8 96
e 8 99
e 9 10
e 9 11
e 9 12
e 9 13
e 9 14
e 9 15
e 9 16
e 9 17
e 9 18
e 9 19
e 9 20
e 9 21
e 9 22
e 9 23
e 9 32
e 9 33
e 9 37
e 9 41
e 9 45
e 9 46
e 9 55
e 9 66
e 9 93
e 9 94
e 9 95
e 9 96
e 9 99
e 9 100
e 10 11
e 10 12
e 10 13
e 10 14
e 10 15
e 10 16
e 10 17
e 10 18
e 10 19
e 10 20
e 10 21
e 10 22
e 10 23
e 10 25
e 10 26
e 10 28
e 10 33
e 10 34
e 10 35
e 10 41
e 10 46
e 10 65
e 10 72
e 10 75
e 10 77
e 10 80
e 10 91
e 10 93
e 10 95
e 10 96
e 10 97
e 10 100
e 11 12
e 11 13
e 11 14
e 11 15
e 11 16
e 11 17
e 11 18
e 11 19
e 11 20
e 11 23
e 11 24
e 11 29
e 11 37
e 11 40
e 11 45
e 11 46
e 11 76
e 11 93
e 11 94
e 11 96
e 11 98
e 11 99
e 12 13
e 12 14
e 12 15
e 12 16
e 12 17
e 12 18
e 12 19
e 12 20
e 12 21
e 12 22
e 12 28
e 12 29
e 12 34
e 12 36
e 12 38
e 12 43
e 12 53
e 12 78
e 12 82
e 12 83
e 12 93
e 12 94
e 12 95
e 12 97
e 12 99
e 13 14
e 13 17
e 13 18
e 13 19
e 13 20
e 13 21
e 13 22
e 13 23
e 13 26
e 13 27
e 13 37
e 13 39
e 13 42
e 13 48
e 13 60
e 13 86
e 13 89
e 13 93
e 13 94
e 13 96
e 13 98
e 14 15
e 14 16
e 14 17
e 14 18
e 14 20
e 14 21
e 14 22
e 14 23
e 14 34
e 14 38
e 14 59
e 14 82
e 14 85
e 14 88
e 14 92
e 14 95
e 14 97
e 14 100
e 15 16
e 15 18
e 15 19
e 15 20
e 15 21
e 15 22
e 15 23
e 15 24
e 15 25
e 15 26
e 15 27
e 15 31
e 15 36
e 15 54
e 15 65
e 15 66
e 15 67
e 15 76
e 15 83
e 15 94
e 15 95
e 15 97
e 15 99
e 15 100
e 16 17
e 16 20
e 16 21
e 16 22
e 16 23
e 16 29
e 16 44
e 16 50
e 16 55
e 16 78
e 16 84
e 16 94
e 16 95
e 16 96
e 16 97
e 16 98
e 16 100
e 17 18
e 17 19
e 17 20
e 17 21
e 17 22
e 17 33
e 17 34
e 17 49
e 17 70
e 17 81
e 17 84
e 17 90
e 17 93
e 17 94
e 17 95
e 17 96
e 17 98
e 17 100
e 18 19
e 18 20
e 18 21
e 18 22
e 18 28
e 18 34
e 18 35
e 18 39
e 18 47
e 18 52
e 18 62
e 18 68
e 18 74
e 18 77
e 18 82
e 18 95
e 18 96
e 18 99
e 19 21
e 19 23
e 19 25
e 19 26
e 19 27
e 19 41
e 19 50
e 19 54
e 19 57
e 19 69
e 19 95
e 19 96
e 19 97
e 19 98
e 20 22
e 20 23
e 20 25
e 20 26
e 20 29
e 20 35
e 20 41
e 20 46
e 20 52
e 20 58
e 20 72
e 20 79
e 20 81
e 20 83
e 20 89
e 20 93
e 20 94
e 20 97
e 20 98
e 20 99
e 20 100
e 21 22
e 21 23
e 21 25
e 21 31
e 21 37
e 21 40
e 21 44
e 21 49
e 21 58
e 21 63
e 21 68
e 21 70
e 21 85
e 21 93
e 21 94
e 21 96
e 21 98
e 21 99
e 22 23
e 22 24
e 22 41
e 22 50
e 22 51
e 22 58
e 22 61
e 22 68
e 22 69
e 22 73
e 22 87
e 22 92
e 22 93
e 22 96
e 22 99
e 23 27
e 23 33
e 23 46
e 23 50
e 23 51
e 23 54
e 23 62
e 23 71
e 23 94
e 23 95
e 23 96
e 23 98
e 24 25
e 24 27
e 24 28
e 24 30
e 24 31
e 24 32
e 24 33
e 24 34
e 24 35
e 24 36
e 24 37
e 24 38
e 24 39
e 24 40
e 24 41
e 24 42
e 24 43
e 24 44
e 24 45
e 24 47
e 24 48
e 24 49
e 24 50
e 24 51
e 24 52
e 24 53
e 24 54
e 24 55
e 24 56
e 24 69
e 24 88
e 24 93
e 24 94
e 24 97
e 24 98
e 24 100
e 25 26
e 25 27
e 25 28
e 25 29
e 25 30
e 25 31
e 25 32
e 25 33
e 25 34
e 25 35
e 25 36
e 25 37
e 25 38
e 25 40
e 25 42
e 25 43
e 25 44
e 25 45
e 25 46
e 25 47
e 25 48
e 25 49
e 25 50
e 25 51
e 25 52
e 25 53
e 25 54
e 25 55
e 25 56
e 25 61
e 25 65
e 25 87
e 25 94
e 25 96
e 25 99
e 25 100
e 26 27
e 26 30
e 26 31
e 26 32
e 26 33
e 26 34
e 26 35
e 26 36
e 26 38
e 26 39
e 26 40
e 26 42
e 26 43
e 26 44
e 26 45
e 26 47
e 26 48
e 26 49
e 26 50
e 26 51
e 26 52
e 26 53
e 26 54
e 26 56
e 26 75
e 26 93
e 26 95
e 26 97
e 26 99
e 26 100
e 27 30
e 27 31
e 27 32
e 27 33
e 27 34
e 27 35
e 27 36
e 27 37
e 27 39
e 27 40
e 27 41
e 27 42
e 27 43
e 27 44
e 27 45
e 27 46
e 27 47
e 27 49
e 27 50
e 27 51
e 27 52
e 27 53
e 27 54
e 27 55
e 27 56
e 27 78
e 27 82
e 27 93
e 27 94
e 27 95
e 27 96
e 27 98
e 27 99
e 27 100
e 28 29
e 28 30
e 28 31
e 28 32
e 28 33
e 28 34
e 28 35
e 28 36
e 28 37
e 28 39
e 28 40
e 28 41
e 28 43
e 28 44
e 28 45
e 28 46
e 28 47
e 28 48
e 28 49
e 28 50
e 28 51
e 28 52
e 28 54
e 28 56
e 28 77
e 28 79
e 28 82
e 28 95
e 28 97
e 28 98
e 28 99
e 28 100
e 29 31
e 29 32
e 29 33
e 29 34
e 29 35
e 29 36
e 29 38
e 29 39
e 29 40
e 29 41
e 29 42
e 29 43
e 29 44
e 29 45
e 29 47
e 29 48
e 29 49
e 29 50
e 29 51
e 29 53
e 29 54
e 29 55
e 29 56
e 29 65
e 29 67
e 29 88
e 29 95
e 29 96
e 29 97
e 29 98
e 29 100
e 30 31
e 30 32
e 30 34
e 30 35
e 30 36
e 30 37
e 30 38
e 30 39
e 30 40
e 30 41
e 30 42
e 30 43
e 30 44
e 30 45
e 30 46
e 30 47
e 30 49
e 30 50
e 30 51
e 30 52
e 30 53
e 30 54
e 30 55
e 30 56
e 30 63
e 30 71
e 30 78
e 30 82
e 30 87
e 30 93
e 30 94
e 30 95
e 30 96
e 30 97
e 31 32
e 31 33
e 31 34
e 31 35
e 31 36
e 31 37
e 31 38
e 31 39
e 31 40
e 31 42
e 31 43
e 31 44
e 31 45
e 31 46
e 31 47
e 31 48
e 31 49
e 31 50
e 31 51
e 31 52
e 31 53
e 31 54
e 31 55
e 31 56
e 31 69
e 31 79
e 31 87
e 31 95
e 31 96
e 31 98
e 31 99
e 31 100
e 32 33
e 32 34
e 32 35
e 32 36
e 32 37
e 32 38
e 32 39
e 32 40
e 32 41
e 32 42
e 32 43
e 32 44
e 32 45
e 32 46
e 32 47
e 32 48
e 32 49
e 32 51
e 32 52
e 32 53
e 32 54
e 32 55
e 32 61
e 32 68
e 32 69
e 32 71
e 32 74
e 32 85
e 32 93
e 32 94
e 32 97
e 32 100
e 33 34
e 33 35
e 33 36
e 33 37
e 33 38
e 33 39
e 33 41
e 33 43
e 33 44
e 33 45
e 33 46
e 33 47
e 33 48
e 33 49
e 33 50
e 33 51
e 33 52
e 33 53
e 33 54
e 33 55
e 33 56
e 33 63
e 33 65
e 33 66
e 33 70
e 33 72
e 33 79
e 33 93
e 33 95
e 33 97
e 33 98
e 33 100
e 34 35
e 34 36
e 34 37
e 34 38
e 34 39
e 34 40
e 34 41
e 34 43
e 34 44
e 34 45
e 34 46
e 34 47
e 34 48
e 34 49
e 34 50
e 34 51
e 34 52
e 34 53
e 34 54
e 34 55
e 34 56
e 34 68
e 34 69
e 34 76
e 34 79
e 34 81
e 34 82
e 34 86
e 34 94
e 34 96
e 34 97
e 34 98
e 34 99
e 35 36
e 35 37
e 35 38
e 35 39
e 35 40
e 35 41
e 35 42
e 35 43
e 35 44
e 35 45
e 35 46
e 35 47
e 35 48
e 35 49
e 35 51
e 35 52
e 35 53
e 35 54
e 35 55
e 35 56
e 35 67
e 35 74
e 35 77
e 35 78
e 35 80
e 35 81
e 35 92
e 35 93
e 35 95
e 35 99
e 35 100
e 36 37
e 36 38
e 36 39
e 36 40
e 36 41
e 36 42
e 36 44
e 36 45
e 36 46
e 36 47
e 36 48
e 36 49
e 36 50
e 36 51
e 36 52
e 36 53
e 36 54
e 36 55
e 36 56
e 36 58
e 36 59
e 36 61
e 36 68
e 36 71
e 36 74
e 36 78
e 36 79
e 36 83
e 36 94
e 36 95
e 37 38
e 37 39
e 37 40
e 37 41
e 37 43
e 37 44
e 37 45
e 37 47
e 37 48
e 37 49
e 37 50
e 37 51
e 37 52
e 37 53
e 37 54
e 37 55
e 37 56
e 37 61
e 37 70
e 37 94
e 37 95
e 37 96
e 37 99
e 37 100
e 38 39
e 38 40
e 38 41
e 38 42
e 38 43
e 38 44
e 38 45
e 38 46
e 38 48
e 38 49
e 38 50
e 38 51
e 38 52
e 38 53
e 38 54
e 38 55
e 38 56
e 38 67
e 38 73
e 38 77
e 38 80
e 38 81
e 38 90
e 38 94
e 38 95
e 38 96
e 39 40
e 39 42
e 39 43
e 39 44
e 39 45
e 39 46
e 39 47
e 39 49
e 39 50
e 39 51
e 39 52
e 39 53
e 39 55
e 39 56
e 39 59
e 39 66
e 39 67
e 39 71
e 39 72
e 39 76
e 39 78
e 39 81
e 39 82
e 39 85
e 39 93
e 39 94
e 39 98
e 39 99
e 39 100
e 40 41
e 40 42
e 40 43
e 40 44
e 40 45
e 40 46
e 40 47
e 40 48
e 40 49
e 40 50
e 40 51
e 40 54
e 40 55
e 40 56
e 40 67
e 40 70
e 40 72
e 40 74
e 40 78
e 40 79
e 40 82
e 40 95
e 40 97
e 40 98
e 40 100
e 41 42
e 41 43
e 41 45
e 41 46
e 41 47
e 41 48
e 41 49
e 41 50
e 41 51
e 41 52
e 41 53
e 41 54
e 41 55
e 41 56
e 41 60
e 41 64
e 41 68
e 41 71
e 41 74
e 41 80
e 41 93
e 41 95
e 41 97
e 41 100
e 42 43
e 42 44
e 42 45
e 42 47
e 42 48
e 42 49
e 42 50
e 42 51
e 42 52
e 42 53
e 42 54
e 42 56
e 42 59
e 42 65
e 42 71
e 42 76
e 42 82
e 42 84
e 42 86
e 42 96
e 42 97
e 43 44
e 43 46
e 43 48
e 43 49
e 43 50
e 43 51
e 43 53
e 43 54
e 43 55
e 43 56
e 43 69
e 43 71
e 43 83
e 43 87
e 43 93
e 43 95
e 43 96
e 43 99
e 43 100
e 44 45
e 44 46
e 44 47
e 44 48
e 44 49
e 44 50
e 44 53
e 44 54
e 44 55
e 44 56
e 44 57
e 44 62
e 44 69
e 44 72
e 44 74
e 44 77
e 44 78
e 44 94
e 44 96
e 44 99
e 44 100
e 45 46
e 45 47
e 45 48
e 45 50
e 45 51
e 45 52
e 45 53
e 45 54
e 45 55
e 45 56
e 45 60
e 45 68
e 45 71
e 45 73
e 45 93
e 45 94
e 45 96
e 45 97
e 45 98
e 45 99
e 46 47
e 46 48
e 46 49
e 46 50
e 46 51
e 46 52
e 46 53
e 46 54
e 46 55
e 46 56
e 46 60
e 46 64
e 46 72
e 46 94
e 46 95
e 46 96
e 46 97
e 46 100
e 47 48
e 47 49
e 47 50
e 47 51
e 47 52
e 47 53
e 47 55
e 47 56
e 47 64
e 47 74
e 47 82
e 47 85
e 47 86
e 47 93
e 47 94
e 47 96
e 47 98
e 47 99
e 48 49
e 48 50
e 48 51
e 48 52
e 48 53
e 48 54
e 48 55
e 48 56
e 48 59
e 48 74
e 48 81
e 48 88
e 48 93
e 48 94
e 48 96
e 48 98
e 48 99
e 49 50
e 49 51
e 49 52
e 49 53
e 49 54
e 49 55
e 49 56
e 49 60
e 49 65
e 49 81
e 49 93
e 49 94
e 49 95
e 49 97
e 49 98
e 49 100
e 50 51
e 50 52
e 50 53
e 50 54
e 50 55
e 50 56
e 50 61
e 50 67
e 50 68
e 50 69
e 50 72
e 50 76
e 50 80
e 50 86
e 50 94
e 50 95
e 50 99
e 50 100
e 51 52
e 51 53
e 51 54
e 51 55
e 51 56
e 51 62
e 51 65
e 51 66
e 51 68
e 51 69
e 51 73
e 51 95
e 51 96
e 51 97
e 51 100
e 52 54
e 52 55
e 52 56
e 52 63
e 52 70
e 52 82
e 52 93
e 52 95
e 52 97
e 53 54
e 53 55
e 53 56
e 53 65
e 53 78
e 53 94
e 53 96
e 53 97
e 53 98
e 53 99
e 54 55
e 54 56
e 54 58
e 54 93
e 54 95
e 54 97
e 54 99
e 55 56
e 55 67
e 55 68
e 55 79
e 55 93
e 55 95
e 55 97
e 55 99
e 55 100
e 56 57
e 56 64
e 56 73
e 56 76
e 56 80
e 56 93
e 56 97
e 57 58
e 57 59
e 57 60
e 57 61
e 57 62
e 57 63
e 57 64
e 57 65
e 57 66
e 57 67
e 57 71
e 57 94
e 57 96
e 58 59
e 58 60
e 58 61
e 58 62
e 58 63
e 58 64
e 58 65
e 58 66
e 58 67
e 58 71
e 58 73
e 58 74
e 58 75
e 58 77
e 59 60
e 59 61
e 59 63
e 59 64
e 59 65
e 59 66
e 59 67
e 59 73
e 59 74
e 59 76
e 59 79
e 59 80
e 59 81
e 59 82
e 59 100
e 60 61
e 60 62
e 60 63
e 60 64
e 60 65
e 60 66
e 60 67
e 60 73
e 60 79
e 60 80
e 60 83
e 60 90
e 60 94
e 60 96
e 61 62
e 61 63
e 61 64
e 61 65
e 61 66
e 61 67
e 61 74
e 61 76
e 61 79
e 61 81
e 61 97
e 61 99
e 62 63
e 62 64
e 62 65
e 62 66
e 62 67
e 62 69
e 62 71
e 62 73
e 62 74
e 62 77
e 62 78
e 62 81
e 62 94
e 63 64
e 63 65
e 63 66
e 63 67
e 63 71
e 63 72
e 63 73
e 63 75
e 63 77
e 64 65
e 64 66
e 64 67
e 64 73
e 64 80
e 64 81
e 65 66
e 65 67
e 65 78
e 65 80
e 65 96
e 65 98
e 66 67
e 66 73
e 66 80
e 66 81
e 66 82
e 66 83
e 66 84
e 66 85
e 66 87
e 66 88
e 66 89
e 66 90
e 66 92
e 66 95
e 67 73
e 67 75
e 67 82
e 67 83
e 67 84
e 67 85
e 67 86
e 68 70
e 68 71
e 68 72
e 68 73
e 68 76
e 68 77
e 68 79
e 68 81
e 68 83
e 68 84
e 68 85
e 68 94
e 68 95
e 68 97
e 68 98
e 68 99
e 68 100
e 69 70
e 69 71
e 69 72
e 69 76
e 69 78
e 69 82
e 69 83
e 69 84
e 69 85
e 69 86
e 69 93
e 69 94
e 70 71
e 70 72
e 70 82
e 70 83
e 70 84
e 70 85
e 70 89
e 70 93
e 70 95
e 70 96
e 70 97
e 70 98
e 70 99
e 71 72
e 71 73
e 71 74
e 71 77
e 71 78
e 71 82
e 71 83
e 71 84
e 71 85
e 71 86
e 71 87
e 71 92
e 71 93
e 71 94
e 71 95
e 71 97
e 72 73
e 72 74
e 72 76
e 72 77
e 72 78
e 72 81
e 72 82
e 72 83
e 72 84
e 72 85
e 72 92
e 72 93
e 72 94
e 72 95
e 72 99
e 72 100
e 73 74
e 73 76
e 73 79
e 73 80
e 73 81
e 73 82
e 73 83
e 73 84
e 73 85
e 73 94
e 73 95
e 73 96
e 73 98
e 73 99
e 73 100
e 74 75
e 74 76
e 74 77
e 74 78
e 74 79
e 74 80
e 74 81
e 74 82
e 74 83
e 74 84
e 74 85
e 74 93
e 74 94
e 74 95
e 74 96
e 74 97
e 74 98
e 74 99
e 74 100
e 75 76
e 75 77
e 75 78
e 75 79
e 75 80
e 75 82
e 75 83
e 75 84
e 75 86
e 75 93
e 75 94
e 75 95
e 75 96
e 75 97
e 75 99
e 75 100
e 76 77
e 76 78
e 76 79
e 76 80
e 76 81
e 76 82
e 76 84
e 76 85
e 76 87
e 76 92
e 76 93
e 76 94
e 76 95
e 76 96
e 76 97
e 76 98
e 76 99
e 76 100
e 77 78
e 77 79
e 77 80
e 77 81
e 77 82
e 77 83
e 77 84
e 77 85
e 77 93
e 77 94
e 77 95
e 77 96
e 77 97
e 77 98
e 77 99
e 77 100
e 78 79
e 78 80
e 78 81
e 78 83
e 78 85
e 78 93
e 78 94
e 78 95
e 78 96
e 78 97
e 78 98
e 78 99
e 79 80
e 79 81
e 79 82
e 79 83
e 79 84
e 79 85
e 79 86
e 79 88
e 79 89
e 79 93
e 79 94
e 79 95
e 79 96
e 79 97
e 79 98
e 79 99
e 79 100
e 80 81
e 80 82
e 80 83
e 80 84
e 80 85
e 80 86
e 80 93
e 80 94
e 80 95
e 80 96
e 80 97
e 80 98
e 80 99
e 80 100
e 81 82
e 81 83
e 81 84
e 81 85
e 81 86
e 81 87
e 81 91
e 81 92
e 81 93
e 81 94
e 81 95
e 81 96
e 81 97
e 81 98
e 81 99
e 81 100
e 82 84
e 82 85
e 82 86
e 82 87
e 82 88
e 82 89
e 82 90
e 82 91
e 82 92
e 82 93
e 82 94
e 82 95
e 82 96
e 82 97
e 82 99
e 82 100
e 83 84
e 83 85
e 83 86
e 83 87
e 83 88
e 83 89
e 83 90
e 83 91
e 83 92
e 83 93
e 83 94
e 83 95
e 83 96
e 83 98
e 83 99
e 84 85
e 84 86
e 84 87
e 84 88
e 84 89
e 84 90
e 84 91
e 84 92
e 84 93
e 84 94
e 84 95
e 84 97
e 84 98
e 84 99
e 84 100
e 85 87
e 85 88
e 85 89
e 85 90
e 85 91
e 85 92
e 85 93
e 85 94
e 85 95
e 85 96
e 85 97
e 85 98
e 85 100
e 86 87
e 86 88
e 86 89
e 86 91
e 86 92
e 86 93
e 86 94
e 86 95
e 86 96
e 86 97
e 86 98
e 86 99
e 86 100
e 87 88
e 87 89
e 87 90
e 87 91
e 87 93
e 87 94
e 87 95
e 87 96
e 87 97
e 87 99
e 87 100
e 88 89
e 88 90
e 88 91
e 88 92
e 88 93
e 88 94
e 88 96
e 88 97
e 88 98
e 88 99
e 88 100
e 89 90
e 89 91
e 89 92
e 89 93
e 89 94
e 89 95
e 89 96
e 89 97
e 89 98
e 89 99
e 89 100
e 90 91
e 90 92
e 90 93
e 90 94
e 90 95
e 90 96
e 90 97
e 90 98
e 90 100
e 91 92
e 91 93
e 91 94
e 91 95
e 91 96
e 91 98
e 91 99
e 91 100
e 92 94
e 92 95
e 92 96
e 92 97
e 92 98
e 92 99
e 92 100
e 93 94
e 93 95
e 93 98
e 93 99
e 93 100
e 94 95
e 94 97
e 94 98
e 94 99
e 94 100
e 95 96
e 95 97
e 95 98
e 95 100
e 96 97
e 96 99
e 96 100
e 97 98
e 97 99
e 97 100
e 98 99
e 98 100
e 99 100
